decision_x1=[0,7];
decision_x2=[0,7];
decision_x3=[0,7];
decision_x4=[0,7];
decision_x5=[0,7];
decision_x6=[0,7];
decision_x7=[0,7];
decision_x8=[0,7];
decision_x9=[0,7];
decision_x10=[0,7];
decision_x11=[0,7];
decision_x12=[0,7];
decision_x13=[0,7];
decision_x14=[0,7];
decision_x15=[0,7];
decision_x16=[0,7];
decision_x17=[0,7];
decision_x18=[0,7];
decision_x19=[0,7];
decision_x20=[0,7];
random_y1=[0,7];
random_y2=[0,7];
random_y3=[0,7];
random_y4=[0,7];
random_y5=[0,7];
random_y6=[0,7];
random_y7=[0,7];
random_y8=[0,7];
random_y9=[0,7];
constraint_x2_x1=[
0,0,7.9|
0,1,9.9|
0,2,9.5|
0,3,6.3|
0,4,3.3|
0,5,7.3|
0,6,7.9|
0,7,4.5|
1,0,7.1|
1,1,3.8|
1,2,0.9|
1,3,7.2|
1,4,6.3|
1,5,9|
1,6,8.7|
1,7,4.8|
2,0,3|
2,1,0.47|
2,2,2.6|
2,3,7.3|
2,4,7.6|
2,5,9.9|
2,6,6.7|
2,7,5|
3,0,0.12|
3,1,8.6|
3,2,7.2|
3,3,2|
3,4,6.8|
3,5,5.6|
3,6,9.8|
3,7,7.9|
4,0,1.9|
4,1,8.7|
4,2,8.6|
4,3,2.3|
4,4,4.1|
4,5,2.2|
4,6,4.3|
4,7,0.15|
5,0,7.5|
5,1,3.6|
5,2,7.6|
5,3,2.6|
5,4,5.9|
5,5,0.82|
5,6,3.5|
5,7,7.9|
6,0,6.1|
6,1,3.3|
6,2,0.097|
6,3,9.1|
6,4,6.7|
6,5,6.3|
6,6,6.8|
6,7,3.7|
7,0,6.6|
7,1,6.9|
7,2,3.3|
7,3,3.3|
7,4,4.4|
7,5,2.3|
7,6,6.4|
7,7,9.4|
];
constraint_x3_x2=[
0,0,5.7|
0,1,6.9|
0,2,2.7|
0,3,7.9|
0,4,2.1|
0,5,3.8|
0,6,0.68|
0,7,0.81|
1,0,7.4|
1,1,0.2|
1,2,6|
1,3,3|
1,4,6.2|
1,5,7|
1,6,0.1|
1,7,0.12|
2,0,8.9|
2,1,0.7|
2,2,1.8|
2,3,8.5|
2,4,5.8|
2,5,3.1|
2,6,3.7|
2,7,6.1|
3,0,4.7|
3,1,8.8|
3,2,5.3|
3,3,7.1|
3,4,5.7|
3,5,6.9|
3,6,6.1|
3,7,8.4|
4,0,9|
4,1,7.1|
4,2,5.7|
4,3,8.7|
4,4,2|
4,5,9.4|
4,6,3.5|
4,7,0.069|
5,0,6|
5,1,5.4|
5,2,2.4|
5,3,5.3|
5,4,0.082|
5,5,9.8|
5,6,0.63|
5,7,4.5|
6,0,5.2|
6,1,2.5|
6,2,5.4|
6,3,0.21|
6,4,1.1|
6,5,3.1|
6,6,3.5|
6,7,9.9|
7,0,1.8|
7,1,4.5|
7,2,8.3|
7,3,2.6|
7,4,4.8|
7,5,5.9|
7,6,1.9|
7,7,0.73|
];
constraint_x4_x3=[
0,0,1.4|
0,1,5.6|
0,2,3.5|
0,3,6.2|
0,4,1.2|
0,5,2.4|
0,6,1.3|
0,7,2.1|
1,0,9.4|
1,1,9.9|
1,2,9.7|
1,3,0.0054|
1,4,8.7|
1,5,6.6|
1,6,10|
1,7,0.96|
2,0,3.8|
2,1,5.7|
2,2,5.9|
2,3,2.5|
2,4,4.1|
2,5,4.3|
2,6,6.6|
2,7,7.9|
3,0,9.1|
3,1,5.9|
3,2,8.7|
3,3,10|
3,4,4|
3,5,6.6|
3,6,1.7|
3,7,3.7|
4,0,0.44|
4,1,2.2|
4,2,6.4|
4,3,9|
4,4,0.32|
4,5,6.7|
4,6,7.2|
4,7,9.7|
5,0,2.7|
5,1,5.3|
5,2,8|
5,3,5.7|
5,4,1.7|
5,5,7.3|
5,6,6|
5,7,4.4|
6,0,4|
6,1,4.5|
6,2,8.3|
6,3,7.5|
6,4,6.1|
6,5,3.6|
6,6,2.4|
6,7,1|
7,0,5|
7,1,0.27|
7,2,8.9|
7,3,6.2|
7,4,0.27|
7,5,5.8|
7,6,9.2|
7,7,1.1|
];
constraint_x5_x1=[
0,0,2.4|
0,1,4.1|
0,2,6.1|
0,3,5.1|
0,4,9.1|
0,5,2.1|
0,6,7.8|
0,7,3.4|
1,0,2.7|
1,1,8.4|
1,2,3.9|
1,3,9.6|
1,4,1.3|
1,5,6.4|
1,6,3.1|
1,7,7.6|
2,0,2.4|
2,1,9|
2,2,0.52|
2,3,0.97|
2,4,6.4|
2,5,4.2|
2,6,6.5|
2,7,1.9|
3,0,7.2|
3,1,2.3|
3,2,5.8|
3,3,9.5|
3,4,4.3|
3,5,6.1|
3,6,8.1|
3,7,3.1|
4,0,5|
4,1,5.7|
4,2,1.4|
4,3,7.5|
4,4,8.7|
4,5,7.7|
4,6,9.2|
4,7,9.9|
5,0,9.6|
5,1,8.9|
5,2,3.4|
5,3,4.4|
5,4,5.1|
5,5,3.8|
5,6,5.6|
5,7,5.5|
6,0,1.8|
6,1,1.1|
6,2,0.45|
6,3,8.1|
6,4,1.9|
6,5,2.8|
6,6,0.46|
6,7,5.3|
7,0,8.9|
7,1,6.2|
7,2,9.6|
7,3,0.62|
7,4,4.6|
7,5,8.4|
7,6,5.5|
7,7,9.7|
];
constraint_x6_x2=[
0,0,4.2|
0,1,6.8|
0,2,5.5|
0,3,4.2|
0,4,9|
0,5,5.8|
0,6,1.2|
0,7,1.5|
1,0,8.9|
1,1,0.81|
1,2,5.6|
1,3,9.3|
1,4,5.6|
1,5,3.3|
1,6,0.052|
1,7,0.83|
2,0,5.8|
2,1,3|
2,2,6.4|
2,3,8.1|
2,4,3.9|
2,5,2.5|
2,6,0.36|
2,7,9|
3,0,0.95|
3,1,8.4|
3,2,5.1|
3,3,2.8|
3,4,2|
3,5,2.4|
3,6,3.8|
3,7,2.3|
4,0,3.5|
4,1,1.8|
4,2,0.91|
4,3,2.5|
4,4,8|
4,5,2.3|
4,6,8.6|
4,7,2.8|
5,0,3.7|
5,1,6|
5,2,0.81|
5,3,3.7|
5,4,0.15|
5,5,7.7|
5,6,2.4|
5,7,7.5|
6,0,2|
6,1,6|
6,2,2.7|
6,3,6.6|
6,4,8.8|
6,5,5.4|
6,6,4.1|
6,7,1.3|
7,0,9.1|
7,1,4.8|
7,2,4.9|
7,3,0.12|
7,4,3.3|
7,5,0.89|
7,6,5.6|
7,7,4.2|
];
constraint_x7_x3=[
0,0,5.3|
0,1,3.9|
0,2,8.8|
0,3,2.4|
0,4,9.3|
0,5,2.5|
0,6,5.9|
0,7,0.64|
1,0,2|
1,1,5.2|
1,2,7.6|
1,3,4.5|
1,4,5.4|
1,5,4.7|
1,6,2.7|
1,7,4.1|
2,0,2.5|
2,1,2.5|
2,2,2.5|
2,3,7.6|
2,4,2.6|
2,5,8.9|
2,6,1.1|
2,7,4.9|
3,0,5.9|
3,1,3.6|
3,2,7.9|
3,3,1.5|
3,4,1.9|
3,5,9.4|
3,6,2.4|
3,7,1.3|
4,0,1.5|
4,1,2.9|
4,2,7.6|
4,3,5.9|
4,4,7.6|
4,5,0.88|
4,6,1.2|
4,7,5.5|
5,0,4.9|
5,1,0.46|
5,2,8.1|
5,3,7.9|
5,4,8.1|
5,5,0.74|
5,6,9.8|
5,7,2.4|
6,0,7.7|
6,1,5.8|
6,2,7.7|
6,3,2.4|
6,4,2.5|
6,5,8.2|
6,6,8|
6,7,3.8|
7,0,2.7|
7,1,4.6|
7,2,4.5|
7,3,6.4|
7,4,0.38|
7,5,2.2|
7,6,0.0012|
7,7,7.6|
];
constraint_x8_x4=[
0,0,9.2|
0,1,4.4|
0,2,7.7|
0,3,7.7|
0,4,9.1|
0,5,9.3|
0,6,6|
0,7,2.6|
1,0,1.9|
1,1,0.43|
1,2,2.6|
1,3,9.3|
1,4,6.3|
1,5,6.3|
1,6,7.2|
1,7,3.9|
2,0,3.5|
2,1,6.7|
2,2,0.67|
2,3,4|
2,4,6|
2,5,9.8|
2,6,4.4|
2,7,8.9|
3,0,0.95|
3,1,2.9|
3,2,0.15|
3,3,0.84|
3,4,3.7|
3,5,8.3|
3,6,4.5|
3,7,5.8|
4,0,8|
4,1,7.1|
4,2,7.2|
4,3,4.5|
4,4,0.96|
4,5,8.1|
4,6,3.7|
4,7,9.3|
5,0,3.9|
5,1,6.3|
5,2,2.8|
5,3,10|
5,4,5.2|
5,5,9|
5,6,1.3|
5,7,0.26|
6,0,3.8|
6,1,4.5|
6,2,1.4|
6,3,5.8|
6,4,2.4|
6,5,7.2|
6,6,1.3|
6,7,7|
7,0,1.5|
7,1,8.5|
7,2,9.7|
7,3,9.3|
7,4,3.2|
7,5,3.4|
7,6,1.7|
7,7,8|
];
constraint_x9_x5=[
0,0,3.1|
0,1,8.9|
0,2,8.2|
0,3,5.9|
0,4,6.1|
0,5,6.3|
0,6,2.2|
0,7,1.5|
1,0,3.7|
1,1,8.3|
1,2,0.93|
1,3,4.6|
1,4,4.4|
1,5,6|
1,6,4.5|
1,7,2.4|
2,0,7.9|
2,1,2.6|
2,2,2.9|
2,3,4.2|
2,4,1.6|
2,5,4.7|
2,6,3.2|
2,7,6.4|
3,0,8.8|
3,1,8.5|
3,2,7.1|
3,3,2.5|
3,4,5|
3,5,4.6|
3,6,9.9|
3,7,7.8|
4,0,6.9|
4,1,4.3|
4,2,7.5|
4,3,8|
4,4,5.3|
4,5,9.8|
4,6,2.3|
4,7,8.4|
5,0,2.4|
5,1,1.1|
5,2,7.7|
5,3,0.78|
5,4,0.63|
5,5,6|
5,6,9.6|
5,7,4.8|
6,0,3.2|
6,1,7.9|
6,2,7.2|
6,3,1.6|
6,4,4.8|
6,5,6.6|
6,6,9.2|
6,7,2.1|
7,0,2.2|
7,1,2.9|
7,2,6.6|
7,3,3.2|
7,4,8.6|
7,5,2.5|
7,6,3.5|
7,7,5.8|
];
constraint_x10_x6=[
0,0,4.2|
0,1,3.4|
0,2,2.4|
0,3,2.4|
0,4,1.6|
0,5,4.7|
0,6,7|
0,7,3.7|
1,0,7.3|
1,1,3|
1,2,5|
1,3,6|
1,4,3.9|
1,5,8.2|
1,6,4.9|
1,7,9.3|
2,0,3.4|
2,1,4.6|
2,2,8|
2,3,0.6|
2,4,6.4|
2,5,0.96|
2,6,1.4|
2,7,6.3|
3,0,2.8|
3,1,5.5|
3,2,5.3|
3,3,6.2|
3,4,9.5|
3,5,0.67|
3,6,4.3|
3,7,1.8|
4,0,5.9|
4,1,8.8|
4,2,0.85|
4,3,8.5|
4,4,5.9|
4,5,9.1|
4,6,0.42|
4,7,0.56|
5,0,7.2|
5,1,5.6|
5,2,9.5|
5,3,8.5|
5,4,5.4|
5,5,2|
5,6,1.3|
5,7,9.8|
6,0,8.4|
6,1,6.1|
6,2,3.1|
6,3,3.3|
6,4,8.2|
6,5,7.5|
6,6,2|
6,7,7.3|
7,0,5.8|
7,1,3.2|
7,2,8.1|
7,3,1.3|
7,4,6.2|
7,5,0.83|
7,6,2.8|
7,7,2.4|
];
constraint_x11_x7=[
0,0,4|
0,1,1.3|
0,2,9.1|
0,3,7.5|
0,4,8.8|
0,5,9.4|
0,6,9.9|
0,7,0.67|
1,0,0.31|
1,1,4.2|
1,2,5.8|
1,3,7.1|
1,4,8.6|
1,5,9|
1,6,8.5|
1,7,8.6|
2,0,8.9|
2,1,4.9|
2,2,1.6|
2,3,3.9|
2,4,0.87|
2,5,2.1|
2,6,6.3|
2,7,3.9|
3,0,7.8|
3,1,9.1|
3,2,4.2|
3,3,2.7|
3,4,1.7|
3,5,5.5|
3,6,4.4|
3,7,4|
4,0,4|
4,1,0.6|
4,2,3.8|
4,3,6.7|
4,4,8.5|
4,5,4.7|
4,6,3.3|
4,7,2.2|
5,0,8.8|
5,1,8.2|
5,2,6.1|
5,3,1.6|
5,4,9.7|
5,5,3.4|
5,6,5.7|
5,7,8.5|
6,0,2.4|
6,1,9.7|
6,2,4.6|
6,3,1.8|
6,4,2.7|
6,5,9.9|
6,6,7.9|
6,7,7.5|
7,0,8|
7,1,1.8|
7,2,8.5|
7,3,9.4|
7,4,6.4|
7,5,5.3|
7,6,4.9|
7,7,8.2|
];
constraint_x12_x8=[
0,0,1.5|
0,1,0.17|
0,2,5.3|
0,3,1.1|
0,4,4.7|
0,5,9.6|
0,6,5.6|
0,7,4.7|
1,0,1.1|
1,1,6.6|
1,2,3.2|
1,3,6.4|
1,4,4|
1,5,6.8|
1,6,9.5|
1,7,2.5|
2,0,6.9|
2,1,2.2|
2,2,1.1|
2,3,3.3|
2,4,2.1|
2,5,8.8|
2,6,4.1|
2,7,6.8|
3,0,5.1|
3,1,0.74|
3,2,1.1|
3,3,4.4|
3,4,2.5|
3,5,10|
3,6,5.6|
3,7,7.3|
4,0,6.2|
4,1,7.1|
4,2,7|
4,3,1.3|
4,4,2.7|
4,5,7|
4,6,6.4|
4,7,3.7|
5,0,3.6|
5,1,1.1|
5,2,3.7|
5,3,7.3|
5,4,7.8|
5,5,1.5|
5,6,0.88|
5,7,2.5|
6,0,9.2|
6,1,0.22|
6,2,1.8|
6,3,8|
6,4,5|
6,5,2.8|
6,6,6.7|
6,7,8.6|
7,0,0.38|
7,1,3.7|
7,2,3.9|
7,3,6.7|
7,4,5.6|
7,5,3.2|
7,6,3.7|
7,7,1.6|
];
constraint_x13_x9=[
0,0,3.7|
0,1,2.8|
0,2,0.84|
0,3,2|
0,4,9|
0,5,1.3|
0,6,3.7|
0,7,8.4|
1,0,4.1|
1,1,7.4|
1,2,8.2|
1,3,6|
1,4,8.6|
1,5,8|
1,6,2.1|
1,7,9.4|
2,0,2.8|
2,1,6.9|
2,2,8.3|
2,3,3.8|
2,4,1.9|
2,5,2.1|
2,6,9.9|
2,7,3.7|
3,0,9.5|
3,1,7.6|
3,2,2.5|
3,3,2.9|
3,4,3|
3,5,0.43|
3,6,8.7|
3,7,0.78|
4,0,2.6|
4,1,0.46|
4,2,8|
4,3,0.71|
4,4,0.87|
4,5,3.4|
4,6,5|
4,7,2.2|
5,0,8.2|
5,1,1.3|
5,2,3.9|
5,3,0.5|
5,4,2.7|
5,5,6.3|
5,6,3.5|
5,7,4|
6,0,8.6|
6,1,0.91|
6,2,0.65|
6,3,8.9|
6,4,0.71|
6,5,2|
6,6,0.4|
6,7,5.8|
7,0,8.6|
7,1,3|
7,2,2.6|
7,3,8.3|
7,4,0.45|
7,5,8.5|
7,6,1.3|
7,7,8.3|
];
constraint_x14_x10=[
0,0,3|
0,1,3|
0,2,1.8|
0,3,5|
0,4,6.4|
0,5,2|
0,6,0.85|
0,7,7.4|
1,0,8.4|
1,1,3.8|
1,2,9.6|
1,3,7.2|
1,4,1|
1,5,3.2|
1,6,9.4|
1,7,2.2|
2,0,9.9|
2,1,1.5|
2,2,1|
2,3,3.9|
2,4,8.5|
2,5,8.4|
2,6,0.18|
2,7,5.6|
3,0,1.6|
3,1,9.7|
3,2,3.2|
3,3,6|
3,4,5.2|
3,5,3.6|
3,6,4|
3,7,7|
4,0,3.5|
4,1,2.4|
4,2,1.7|
4,3,3.8|
4,4,2.2|
4,5,1.4|
4,6,3.2|
4,7,7.5|
5,0,0.46|
5,1,3.1|
5,2,5.2|
5,3,8.3|
5,4,4.3|
5,5,2.2|
5,6,4.8|
5,7,3.6|
6,0,8.7|
6,1,7.7|
6,2,8.4|
6,3,4.2|
6,4,4.1|
6,5,7.2|
6,6,7.3|
6,7,5.9|
7,0,6.4|
7,1,4.8|
7,2,0.57|
7,3,6.7|
7,4,2.8|
7,5,1.9|
7,6,0.8|
7,7,7.4|
];
constraint_x15_x11=[
0,0,3.5|
0,1,4.7|
0,2,2.2|
0,3,1.1|
0,4,9.5|
0,5,3.1|
0,6,2.8|
0,7,1.5|
1,0,3.3|
1,1,0.57|
1,2,5.3|
1,3,3.1|
1,4,7.3|
1,5,5.2|
1,6,2.9|
1,7,2|
2,0,4.5|
2,1,0.83|
2,2,8.7|
2,3,8.2|
2,4,3.2|
2,5,6|
2,6,3|
2,7,0.18|
3,0,6.3|
3,1,0.051|
3,2,1.8|
3,3,1|
3,4,5.7|
3,5,4.1|
3,6,4.1|
3,7,5.1|
4,0,2.8|
4,1,3.4|
4,2,7.9|
4,3,1.1|
4,4,5.1|
4,5,0.43|
4,6,4|
4,7,5.7|
5,0,7.2|
5,1,0.87|
5,2,1.2|
5,3,3.6|
5,4,7.7|
5,5,6.8|
5,6,8.3|
5,7,3.6|
6,0,7.2|
6,1,0.53|
6,2,7.4|
6,3,8.8|
6,4,3.8|
6,5,7.8|
6,6,4.6|
6,7,4.7|
7,0,0.4|
7,1,0.0034|
7,2,1.2|
7,3,2.4|
7,4,3.2|
7,5,7.6|
7,6,5.9|
7,7,4|
];
constraint_x16_x12=[
0,0,2.7|
0,1,9.8|
0,2,8.9|
0,3,9|
0,4,0.61|
0,5,8.5|
0,6,4.7|
0,7,2.8|
1,0,3.7|
1,1,0.59|
1,2,8.5|
1,3,9|
1,4,2.1|
1,5,0.84|
1,6,1.6|
1,7,1.4|
2,0,4.9|
2,1,4.4|
2,2,9.2|
2,3,8.2|
2,4,8.5|
2,5,3.6|
2,6,3.9|
2,7,6|
3,0,0.2|
3,1,3.2|
3,2,3.1|
3,3,0.49|
3,4,9.5|
3,5,4|
3,6,3.9|
3,7,7.9|
4,0,3|
4,1,6.3|
4,2,2.2|
4,3,1.1|
4,4,2.2|
4,5,9.9|
4,6,7.4|
4,7,3.2|
5,0,5.6|
5,1,4.3|
5,2,1.9|
5,3,5.3|
5,4,9.5|
5,5,1.1|
5,6,2.5|
5,7,1.3|
6,0,9.7|
6,1,9|
6,2,6.6|
6,3,7.5|
6,4,9.4|
6,5,5.8|
6,6,0.59|
6,7,9|
7,0,0.27|
7,1,7.8|
7,2,0.61|
7,3,8.3|
7,4,6.7|
7,5,4.3|
7,6,1.9|
7,7,6|
];
constraint_x17_x13=[
0,0,0.52|
0,1,9.5|
0,2,7.1|
0,3,5.9|
0,4,9.2|
0,5,3.9|
0,6,9.5|
0,7,8|
1,0,5.5|
1,1,4.4|
1,2,4.6|
1,3,1.9|
1,4,8.3|
1,5,0.35|
1,6,0.38|
1,7,7.4|
2,0,0.51|
2,1,6.7|
2,2,2.1|
2,3,0.72|
2,4,2.2|
2,5,4.6|
2,6,7.7|
2,7,7.3|
3,0,3.2|
3,1,9.3|
3,2,5|
3,3,1.7|
3,4,5.7|
3,5,0.74|
3,6,4.8|
3,7,1.1|
4,0,4.7|
4,1,8|
4,2,9.4|
4,3,8.4|
4,4,4.1|
4,5,4.8|
4,6,7.1|
4,7,5.4|
5,0,2.1|
5,1,3.9|
5,2,3.2|
5,3,0.93|
5,4,5.9|
5,5,9.3|
5,6,8.9|
5,7,1.2|
6,0,1.8|
6,1,4.9|
6,2,8.5|
6,3,1.9|
6,4,3.5|
6,5,3.4|
6,6,5.2|
6,7,6.8|
7,0,8.3|
7,1,5.2|
7,2,5|
7,3,2.6|
7,4,0.89|
7,5,4.8|
7,6,4.2|
7,7,6.7|
];
constraint_x18_x14=[
0,0,5|
0,1,7.7|
0,2,5.7|
0,3,5.2|
0,4,7|
0,5,5.8|
0,6,7.1|
0,7,2.9|
1,0,9.3|
1,1,3.3|
1,2,9.3|
1,3,2.4|
1,4,2|
1,5,5.2|
1,6,1.9|
1,7,1.6|
2,0,9.7|
2,1,9.9|
2,2,4.5|
2,3,8.2|
2,4,7.9|
2,5,3|
2,6,5.8|
2,7,2.1|
3,0,2.8|
3,1,2|
3,2,5.1|
3,3,5.7|
3,4,3.2|
3,5,0.26|
3,6,5.3|
3,7,5.1|
4,0,2.3|
4,1,4.2|
4,2,8.5|
4,3,3.3|
4,4,9.6|
4,5,5|
4,6,6.1|
4,7,5|
5,0,2.3|
5,1,6|
5,2,1.2|
5,3,8.3|
5,4,1.1|
5,5,4.1|
5,6,1|
5,7,5.2|
6,0,6.9|
6,1,4.3|
6,2,6.6|
6,3,9.3|
6,4,0.81|
6,5,2.2|
6,6,7.3|
6,7,2|
7,0,1.4|
7,1,4.2|
7,2,6.2|
7,3,7.5|
7,4,4.2|
7,5,7.2|
7,6,4.4|
7,7,7.9|
];
constraint_x19_x15=[
0,0,2|
0,1,5.5|
0,2,4.7|
0,3,0.32|
0,4,1.1|
0,5,5.3|
0,6,1.2|
0,7,2.2|
1,0,0.11|
1,1,4.3|
1,2,2.3|
1,3,9.8|
1,4,3.5|
1,5,1.3|
1,6,0.94|
1,7,2.8|
2,0,0.55|
2,1,2.7|
2,2,0.26|
2,3,7.4|
2,4,5.3|
2,5,6.2|
2,6,6.3|
2,7,4.7|
3,0,3.6|
3,1,2.7|
3,2,0.08|
3,3,2.4|
3,4,9.1|
3,5,3|
3,6,3.7|
3,7,1.1|
4,0,4.2|
4,1,2|
4,2,9.1|
4,3,9.1|
4,4,0.99|
4,5,8.4|
4,6,5.5|
4,7,6.9|
5,0,5.8|
5,1,9.6|
5,2,8.9|
5,3,6.9|
5,4,5.5|
5,5,3.4|
5,6,1.1|
5,7,2.3|
6,0,3.1|
6,1,7.2|
6,2,1.1|
6,3,9.3|
6,4,8.3|
6,5,1.7|
6,6,7.3|
6,7,2|
7,0,0.77|
7,1,7.9|
7,2,6.4|
7,3,1.7|
7,4,2.1|
7,5,6.5|
7,6,4.9|
7,7,5.9|
];
constraint_x20_x16=[
0,0,5|
0,1,6.5|
0,2,3.8|
0,3,8.7|
0,4,1.4|
0,5,4.4|
0,6,3.9|
0,7,8.4|
1,0,5.8|
1,1,2.1|
1,2,3.6|
1,3,3.9|
1,4,9.8|
1,5,2.4|
1,6,8.2|
1,7,7.7|
2,0,5.1|
2,1,6.5|
2,2,7.4|
2,3,0.62|
2,4,2.1|
2,5,3.2|
2,6,2.4|
2,7,7.7|
3,0,0.14|
3,1,3.7|
3,2,7.4|
3,3,6.1|
3,4,0.047|
3,5,1.7|
3,6,7.4|
3,7,7.5|
4,0,8.7|
4,1,9.4|
4,2,8.2|
4,3,8|
4,4,3.7|
4,5,9.5|
4,6,6.6|
4,7,8.5|
5,0,1.5|
5,1,7.7|
5,2,6.1|
5,3,5.7|
5,4,9.5|
5,5,6.1|
5,6,8.3|
5,7,6.1|
6,0,4|
6,1,3.3|
6,2,8.9|
6,3,3.1|
6,4,2.9|
6,5,6|
6,6,1.6|
6,7,3.1|
7,0,5.4|
7,1,7.5|
7,2,2.2|
7,3,7|
7,4,9.9|
7,5,1.1|
7,6,1.2|
7,7,5.8|
];
constraint_x1_y1=[
0,0,9.8|
0,1,5|
0,2,1.9|
0,3,8.2|
0,4,8.3|
0,5,2.7|
0,6,7.9|
0,7,1.3|
1,0,9.6|
1,1,0.17|
1,2,4.9|
1,3,9.2|
1,4,6.4|
1,5,2.6|
1,6,5.8|
1,7,4.4|
2,0,1.2|
2,1,2.9|
2,2,5.1|
2,3,7.5|
2,4,6.6|
2,5,0.64|
2,6,3.3|
2,7,8.4|
3,0,2.8|
3,1,3.7|
3,2,9.1|
3,3,6.5|
3,4,6.3|
3,5,5.7|
3,6,4.4|
3,7,9.2|
4,0,9.3|
4,1,5|
4,2,1.5|
4,3,4.7|
4,4,6|
4,5,6.9|
4,6,9.5|
4,7,3.6|
5,0,0.49|
5,1,5.4|
5,2,5.1|
5,3,8.7|
5,4,7.6|
5,5,6.8|
5,6,8.5|
5,7,9.8|
6,0,2.3|
6,1,0.88|
6,2,0.62|
6,3,4.8|
6,4,9.1|
6,5,6.6|
6,6,3.6|
6,7,0.37|
7,0,6.8|
7,1,9.6|
7,2,3|
7,3,6.6|
7,4,9|
7,5,6.1|
7,6,0.16|
7,7,4.2|
];
constraint_x2_y2=[
0,0,8|
0,1,7.3|
0,2,2.9|
0,3,4.7|
0,4,7.3|
0,5,6.8|
0,6,3.1|
0,7,2.2|
1,0,8.7|
1,1,7.7|
1,2,10|
1,3,4.4|
1,4,4.7|
1,5,9.8|
1,6,9.4|
1,7,3.2|
2,0,9.6|
2,1,7.3|
2,2,4.8|
2,3,5|
2,4,1.6|
2,5,1.8|
2,6,2|
2,7,3.1|
3,0,3.1|
3,1,8.3|
3,2,1.4|
3,3,9.8|
3,4,5|
3,5,4.4|
3,6,0.86|
3,7,4.2|
4,0,6.8|
4,1,4.6|
4,2,6|
4,3,9.9|
4,4,4.4|
4,5,3.4|
4,6,0.21|
4,7,8.2|
5,0,0.46|
5,1,9.3|
5,2,7.6|
5,3,8.3|
5,4,3.3|
5,5,2.9|
5,6,0.32|
5,7,7.3|
6,0,8.1|
6,1,9.1|
6,2,4.9|
6,3,0.85|
6,4,5.5|
6,5,7.7|
6,6,0.35|
6,7,2.7|
7,0,9.7|
7,1,0.49|
7,2,6.2|
7,3,6.1|
7,4,0.51|
7,5,2.3|
7,6,10|
7,7,5.3|
];
constraint_x3_y3=[
0,0,6.8|
0,1,0.78|
0,2,9.9|
0,3,3.1|
0,4,1.8|
0,5,4.9|
0,6,3.7|
0,7,9.6|
1,0,2.5|
1,1,9.3|
1,2,8.6|
1,3,5.4|
1,4,8.9|
1,5,1.7|
1,6,0.11|
1,7,0.36|
2,0,6.2|
2,1,5.7|
2,2,4.4|
2,3,7.5|
2,4,6.2|
2,5,7.3|
2,6,0.94|
2,7,2.5|
3,0,4.7|
3,1,1.2|
3,2,0.81|
3,3,6.8|
3,4,8.7|
3,5,6.8|
3,6,3.7|
3,7,0.71|
4,0,8|
4,1,2.3|
4,2,6.7|
4,3,5.2|
4,4,7.4|
4,5,6.5|
4,6,8|
4,7,0.2|
5,0,2.4|
5,1,3.8|
5,2,9|
5,3,5.8|
5,4,8.4|
5,5,5.6|
5,6,4.7|
5,7,7.1|
6,0,7.2|
6,1,5.1|
6,2,7.7|
6,3,1.4|
6,4,8.4|
6,5,7.8|
6,6,3.4|
6,7,3.7|
7,0,6.7|
7,1,8|
7,2,8.4|
7,3,2.5|
7,4,7.4|
7,5,3.3|
7,6,1.2|
7,7,2.4|
];
constraint_x4_y4=[
0,0,7.9|
0,1,8.4|
0,2,9.9|
0,3,2.5|
0,4,10|
0,5,1.1|
0,6,8.3|
0,7,6.1|
1,0,4.7|
1,1,9.9|
1,2,6.6|
1,3,8.8|
1,4,6.7|
1,5,4.3|
1,6,8.8|
1,7,4.7|
2,0,4.3|
2,1,1.7|
2,2,0.62|
2,3,4.3|
2,4,8.7|
2,5,8.9|
2,6,2|
2,7,0.62|
3,0,7.4|
3,1,7.1|
3,2,6.3|
3,3,6.6|
3,4,6.6|
3,5,2.5|
3,6,8.9|
3,7,9.6|
4,0,4.1|
4,1,9.4|
4,2,8.9|
4,3,8|
4,4,8.8|
4,5,10|
4,6,1.7|
4,7,2.7|
5,0,7.5|
5,1,5.7|
5,2,0.47|
5,3,6.3|
5,4,5.8|
5,5,1.2|
5,6,1.5|
5,7,8.5|
6,0,9.6|
6,1,1.6|
6,2,5.7|
6,3,6|
6,4,1.3|
6,5,3.5|
6,6,0.94|
6,7,4.5|
7,0,4.2|
7,1,6.1|
7,2,6.7|
7,3,5|
7,4,8.5|
7,5,6.2|
7,6,2.1|
7,7,9.8|
];
constraint_x5_y5=[
0,0,1.4|
0,1,9.4|
0,2,8.3|
0,3,6.8|
0,4,1.9|
0,5,6.9|
0,6,3.7|
0,7,5.1|
1,0,7.7|
1,1,6.4|
1,2,9.5|
1,3,6.7|
1,4,3.7|
1,5,7.6|
1,6,4.3|
1,7,5.6|
2,0,8.7|
2,1,5.9|
2,2,9.2|
2,3,4.4|
2,4,9.9|
2,5,2|
2,6,7.5|
2,7,4.9|
3,0,0.55|
3,1,6.6|
3,2,2.5|
3,3,2.3|
3,4,0.67|
3,5,3.2|
3,6,9.2|
3,7,1.6|
4,0,8.2|
4,1,3.9|
4,2,2.3|
4,3,1.5|
4,4,7.5|
4,5,5.7|
4,6,3.1|
4,7,8.2|
5,0,9.2|
5,1,7.4|
5,2,2.9|
5,3,5.2|
5,4,5.1|
5,5,5.3|
5,6,5.9|
5,7,9.3|
6,0,5.5|
6,1,8.9|
6,2,3|
6,3,6.2|
6,4,5.9|
6,5,8.5|
6,6,4.6|
6,7,2.5|
7,0,2.3|
7,1,1.9|
7,2,0.98|
7,3,0.32|
7,4,5.2|
7,5,5.4|
7,6,2|
7,7,6.2|
];
constraint_x6_y6=[
0,0,0.5|
0,1,5|
0,2,4.3|
0,3,3|
0,4,8.5|
0,5,1.4|
0,6,10|
0,7,7.3|
1,0,4.6|
1,1,9.4|
1,2,5|
1,3,7.8|
1,4,3.3|
1,5,3.2|
1,6,2.9|
1,7,7.8|
2,0,6.9|
2,1,6.9|
2,2,4|
2,3,7.6|
2,4,3.5|
2,5,3.1|
2,6,8.4|
2,7,5.3|
3,0,4.1|
3,1,0.6|
3,2,1.8|
3,3,4.6|
3,4,9.6|
3,5,9.4|
3,6,9.2|
3,7,5.8|
4,0,7.6|
4,1,3.3|
4,2,9.2|
4,3,5.5|
4,4,1.1|
4,5,7.2|
4,6,3.7|
4,7,0.96|
5,0,6.1|
5,1,0.82|
5,2,3.7|
5,3,1.4|
5,4,8.1|
5,5,5.9|
5,6,8.3|
5,7,5.8|
6,0,1.6|
6,1,9|
6,2,9.1|
6,3,10|
6,4,7.8|
6,5,0.81|
6,6,7|
6,7,4.3|
7,0,0.51|
7,1,3.9|
7,2,5.1|
7,3,0.16|
7,4,3.7|
7,5,2.1|
7,6,2.8|
7,7,9.7|
];
constraint_x7_y7=[
0,0,5.5|
0,1,1.1|
0,2,4.8|
0,3,2.3|
0,4,6.6|
0,5,1.4|
0,6,2.4|
0,7,2.2|
1,0,6|
1,1,3.7|
1,2,5.9|
1,3,5.3|
1,4,2.7|
1,5,0.78|
1,6,9.7|
1,7,1.9|
2,0,3.6|
2,1,9.9|
2,2,2.6|
2,3,8.2|
2,4,0.36|
2,5,5.7|
2,6,9.7|
2,7,0.93|
3,0,6.1|
3,1,5.8|
3,2,3.6|
3,3,9.9|
3,4,9.8|
3,5,9.2|
3,6,2.9|
3,7,7|
4,0,9.8|
4,1,9.8|
4,2,6.2|
4,3,3.1|
4,4,8.3|
4,5,3.8|
4,6,1|
4,7,2.7|
5,0,3.5|
5,1,6|
5,2,3.8|
5,3,7.6|
5,4,9|
5,5,5.3|
5,6,3.1|
5,7,7.2|
6,0,4.8|
6,1,0.95|
6,2,6.8|
6,3,2.6|
6,4,6.8|
6,5,1.2|
6,6,6.2|
6,7,6.1|
7,0,3.9|
7,1,0.57|
7,2,9.4|
7,3,6.3|
7,4,5.1|
7,5,0.97|
7,6,3.5|
7,7,9|
];
constraint_x8_y8=[
0,0,6.7|
0,1,8.9|
0,2,0.32|
0,3,9.5|
0,4,9.9|
0,5,7.9|
0,6,9.2|
0,7,5.6|
1,0,4.4|
1,1,1.1|
1,2,7.8|
1,3,8.2|
1,4,8.7|
1,5,7|
1,6,5.7|
1,7,7|
2,0,7.2|
2,1,7|
2,2,0.4|
2,3,8.8|
2,4,3.1|
2,5,5.6|
2,6,8.7|
2,7,4.8|
3,0,1.7|
3,1,4.2|
3,2,4.8|
3,3,7.3|
3,4,4.3|
3,5,8.9|
3,6,8.9|
3,7,2.2|
4,0,1.7|
4,1,0.46|
4,2,7.2|
4,3,5.2|
4,4,9.1|
4,5,7.4|
4,6,0.61|
4,7,0.047|
5,0,6.5|
5,1,1.8|
5,2,3.5|
5,3,3.4|
5,4,8.2|
5,5,9.9|
5,6,9.2|
5,7,0.69|
6,0,6.5|
6,1,6|
6,2,8|
6,3,6.7|
6,4,7.3|
6,5,4.3|
6,6,1.5|
6,7,10|
7,0,1.6|
7,1,6.2|
7,2,0.11|
7,3,5.3|
7,4,2.2|
7,5,0.27|
7,6,4.9|
7,7,8.9|
];
constraint_x9_y9=[
0,0,7.3|
0,1,4.3|
0,2,4.3|
0,3,2.3|
0,4,2.2|
0,5,9.5|
0,6,0.82|
0,7,7.1|
1,0,1.6|
1,1,2.4|
1,2,2|
1,3,3.9|
1,4,1.8|
1,5,9.1|
1,6,8.3|
1,7,0.02|
2,0,5.9|
2,1,2.6|
2,2,8|
2,3,5.6|
2,4,5.6|
2,5,2|
2,6,1.5|
2,7,1.4|
3,0,8.3|
3,1,3.3|
3,2,2.8|
3,3,4.7|
3,4,5.9|
3,5,0.021|
3,6,2.9|
3,7,6.1|
4,0,8.2|
4,1,5.2|
4,2,9.1|
4,3,9.7|
4,4,7.3|
4,5,1.3|
4,6,6.5|
4,7,4.6|
5,0,9.1|
5,1,5|
5,2,5.6|
5,3,2.3|
5,4,3.3|
5,5,4.3|
5,6,3.6|
5,7,6.4|
6,0,3.5|
6,1,9|
6,2,0.4|
6,3,0.66|
6,4,4.1|
6,5,6.5|
6,6,7.7|
6,7,8.9|
7,0,3.2|
7,1,8.9|
7,2,6.2|
7,3,6.7|
7,4,1.1|
7,5,9|
7,6,3.7|
7,7,6|
];
initial_distribution_y1=[0.065,0.14,0.18,0.16,0.13,0.063,0.14,0.12];
initial_distribution_y2=[0.056,0.13,0.16,0.047,0.12,0.01,0.22,0.26];
initial_distribution_y3=[0.061,0.12,0.14,0.11,0.14,0.15,0.13,0.14];
initial_distribution_y4=[0.0054,0.19,0.19,0.0029,0.21,0.2,0.013,0.19];
initial_distribution_y5=[0.032,0.12,0.19,0.2,0.012,0.068,0.18,0.2];
initial_distribution_y6=[0.037,0.073,0.18,0.15,0.19,0.096,0.038,0.23];
initial_distribution_y7=[0.052,0.16,0.003,0.21,0.012,0.19,0.095,0.28];
initial_distribution_y8=[0.069,0.15,0.26,0.064,0.0055,0.038,0.22,0.2];
initial_distribution_y9=[0.051,0.099,0.18,0.14,0.19,0.18,0.14,0.012];
transition_y1=[
0.097,0.062,0.18,0.048,0.066,0.21,0.2,0.13|
0.15,0.17,0.08,0.13,0.11,0.037,0.21,0.1|
0.14,0.17,0.2,0.12,0.071,0.15,0.13,0.018|
0.13,0.22,0.12,0.084,0.091,0.025,0.3,0.022|
0.12,0.11,0.049,0.14,0.21,0.069,0.17,0.13|
0.14,0.2,0.16,0.15,0.042,0.085,0.18,0.042|
0.19,0.15,0.14,0.11,0.13,0.021,0.17,0.088|
0.064,0.14,0.16,0.28,0.047,0.2,0.1,0.011|
];
transition_y2=[
0.012,0.14,0.14,0.18,0.11,0.12,0.042,0.26|
0.24,0.084,0.22,0.14,0.033,0.065,0.13,0.086|
0.19,0.19,0.056,0.18,0.017,0.0065,0.21,0.15|
0.089,0.12,0.16,0.16,0.046,0.08,0.16,0.19|
0.2,0.13,0.13,0.088,0.11,0.029,0.11,0.21|
0.18,0.1,0.17,0.14,0.039,0.1,0.15,0.12|
0.01,0.046,0.16,0.24,0.25,0.032,0.19,0.068|
0.14,0.12,0.14,0.18,0.13,0.12,0.021,0.15|
];
transition_y3=[
0.15,0.059,0.25,0.071,0.25,0.043,0.048,0.13|
0.15,0.17,0.091,0.18,0.06,0.17,0.16,0.019|
0.075,0.11,0.11,0.028,0.096,0.18,0.23,0.17|
0.12,0.057,0.29,0.11,0.14,0.17,0.046,0.073|
0.21,0.12,0.05,0.12,0.11,0.093,0.15,0.14|
0.081,0.098,0.028,0.099,0.25,0.095,0.25,0.099|
0.089,0.05,0.039,0.043,0.18,0.23,0.17,0.19|
0.13,0.11,0.22,0.19,0.16,0.047,0.056,0.094|
];
transition_y4=[
0.13,0.12,0.026,0.2,0.21,0.13,0.17,0.02|
0.16,0.32,0.098,0.0048,0.032,0.15,0.19,0.044|
0.028,0.23,0.083,0.2,0.099,0.17,0.03,0.17|
0.18,0.046,0.093,0.14,0.23,0.055,0.22,0.034|
0.089,0.066,0.015,0.1,0.083,0.22,0.22,0.21|
0.19,0.11,0.097,0.095,0.12,0.16,0.15,0.085|
0.3,0.055,0.032,0.2,0.056,0.025,0.14,0.19|
0.15,0.13,0.045,0.16,0.029,0.19,0.16,0.12|
];
transition_y5=[
0.18,0.09,0.12,0.13,0.18,0.13,0.016,0.16|
0.0072,0.25,0.12,0.042,0.095,0.15,0.3,0.035|
0.16,0.14,0.2,0.063,0.11,0.059,0.071,0.19|
0.2,0.077,0.19,0.24,0.0078,0.096,0.08,0.11|
0.091,0.2,0.04,0.14,0.022,0.19,0.11,0.21|
0.085,0.14,0.064,0.17,0.13,0.073,0.15,0.19|
0.036,0.27,0.088,0.25,0.11,0.084,0.069,0.087|
0.18,0.23,0.082,0.037,0.15,0.1,0.14,0.089|
];
transition_y6=[
0.059,0.16,0.27,0.077,0.094,0.02,0.14,0.19|
0.12,0.02,0.034,0.1,0.025,0.28,0.13,0.28|
0.22,0.11,0.2,0.009,0.22,0.041,0.13,0.071|
0.1,0.13,0.0062,0.16,0.0071,0.12,0.15,0.31|
0.2,0.11,0.066,0.07,0.2,0.29,0.012,0.058|
0.078,0.0079,0.28,0.038,0.068,0.33,0.081,0.11|
0.12,0.14,0.12,0.14,0.14,0.093,0.16,0.097|
0.19,0.12,0.15,0.087,0.052,0.11,0.15,0.15|
];
transition_y7=[
0.038,0.23,0.18,0.26,0.075,0.12,0.085,0.0075|
0.05,0.11,0.14,0.14,0.23,0.19,0.028,0.13|
0.0095,0.08,0.062,0.31,0.16,0.05,0.067,0.27|
0.062,0.18,0.17,0.25,0.052,0.16,0.0037,0.12|
0.035,0.22,0.026,0.22,0.058,0.18,0.049,0.21|
0.23,0.05,0.22,0.24,0.026,0.083,0.13,0.017|
0.14,0.16,0.28,0.034,0.13,0.0031,0.0059,0.25|
0.22,0.022,0.055,0.02,0.18,0.16,0.3,0.045|
];
transition_y8=[
0.2,0.035,0.14,0.043,0.11,0.28,0.16,0.041|
0.0084,0.1,0.18,0.078,0.12,0.22,0.19,0.099|
0.11,0.092,0.25,0.11,0.062,0.22,0.14,0.024|
0.14,0.14,0.093,0.015,0.11,0.19,0.15,0.16|
0.04,0.082,0.27,0.22,0.01,0.09,0.27,0.018|
0.16,0.0066,0.2,0.15,0.16,0.15,0.082,0.089|
0.059,0.057,0.21,0.23,0.21,0.13,0.06,0.035|
0.14,0.029,0.21,0.0069,0.25,0.096,0.082,0.18|
];
transition_y9=[
0.26,0.21,0.028,0.051,0.036,0.025,0.14,0.25|
0.17,0.16,0.089,0.14,0.11,0.098,0.18,0.054|
0.039,0.087,0.24,0.12,0.18,0.23,0.085,0.023|
0.16,0.14,0.14,0.13,0.12,0.015,0.14,0.16|
0.2,0.14,0.18,0.12,0.0066,0.2,0.078,0.064|
0.14,0.16,0.0076,0.14,0.2,0.19,0.03,0.14|
0.23,0.017,0.1,0.0069,0.16,0.042,0.19,0.25|
0.23,0.083,0.22,0.21,0.018,0.064,0.019,0.16|
];
